WARNING: for repeatability, setting FPU to use double precision
============================[ Problem Statistics ]=============================
|                                                                             |
|  Number of variables:            50                                         |
|  Number of clauses:             218                                         |
|  Parse time:                   0.00 s                                       |
|                                                                             |
============================[ Search Statistics ]==============================
| Conflicts |          ORIGINAL         |          LEARNT          | Progress |
|           |    Vars  Clauses Literals |    Limit  Clauses Lit/Cl |          |
===============================================================================
===============================================================================
restarts              : 1
conflicts             : 45             (31802 /sec)
decisions             : 48             (0.00 % random) (33922 /sec)
propagations          : 637            (450177 /sec)
conflict literals     : 149            (24.75 % deleted)
Memory used           : 20.00 MB
CPU time              : 0.001415 s

UNSATISFIABLE
